[[98, 97, 88, 87, 96, 86, 95, 94, 93, 92, 91, 83, 82, 73, 84, 85, 76, 77, 78, 68, 67, 75, 66, 74, 65, 64, 56, 58, 59, 57, 55], [46, 47, 48, 39, 40, 38, 29, 37, 28, 30, 31, 19, 21, 22, 20, 13, 11, 10, 2, 12, 3, 4, 14, 5, 6, 7, 8, 9, 18, 17, 16, 15], [23, 24, 25, 26, 27, 35, 36, 44, 34, 43, 33, 32, 41, 42, 50, 49, 60, 51, 52, 53, 45, 54, 63, 61, 62, 72, 71, 70, 69, 80, 81, 79, 89, 90, 99]]